p cnf 10 50
-2 8 -9 0
5 9 7 0
-6 -8 7 0
4 2 8 0
2 -8 -3 0
-3 7 -10 0
-10 6 -1 0
-9 3 -5 0
-4 -8 2 0
-10 -1 -5 0
-6 -9 4 0
-5 -10 9 0
2 8 9 0
7 8 -6 0
-6 -1 -8 0
-6 3 1 0
-6 -8 7 0
-3 4 -10 0
-5 7 -3 0
-8 -1 -4 0
-7 -10 6 0
-8 3 2 0
4 5 -1 0
-6 10 -3 0
7 5 -8 0
6 -3 9 0
-4 -8 5 0
-1 7 -8 0
-8 -7 -9 0
7 9 -1 0
1 -6 8 0
1 -4 -6 0
-1 -8 4 0
7 1 -9 0
-2 -6 1 0
9 3 8 0
-5 -8 10 0
-8 -1 -2 0
5 4 9 0
-10 7 -6 0
6 1 10 0
-5 -10 -4 0
5 -2 3 0
6 -10 1 0
-9 -10 2 0
8 9 -5 0
10 7 5 0
4 2 5 0
5 10 -7 0
6 10 -1 0